(declare-const x0 Bool)
(declare-const x1 Bool)
(declare-const x2 Bool)
(declare-const y0 Real)
(declare-const y1 Real)
(declare-const y2 Real)
(declare-const y3 Real)
(declare-const y4 Real)
(declare-const y5 Real)
(declare-const y6 Real)
(declare-const y7 Real)
(declare-const y8 Real)
(declare-const y9 Real)
(declare-const y10 Real)
(declare-const y11 Real)
(declare-const y12 Real)
(declare-const y13 Real)
(declare-const y14 Real)
(declare-const y15 Real)
(declare-const y16 Real)
(declare-const y17 Real)
(declare-const y18 Real)
(declare-const y19 Real)
(declare-const y20 Real)
(declare-const y21 Real)
(declare-const y22 Real)
(declare-const y23 Real)
(declare-const y24 Real)
(declare-const y25 Real)
(declare-const y26 Real)
(declare-const y27 Real)
(declare-const y28 Real)
(declare-const y29 Real)
(declare-const y30 Real)
(declare-const y31 Real)
(declare-const y32 Real)
(declare-const y33 Real)
(declare-const y34 Real)
(declare-const y35 Real)
(declare-const y36 Real)
(assert (= (< 73 42) (or (or false false) true)))
(assert (and x2 false))
(assert (or (or true x0) (and (< y30 y11) (< 25 46))))
(assert (and (= (< (+ 91 67) 32) (or (or (and (< y19 y7) (and x1 x0)) x2) (and (= y10 20) x0))) (and (= (= y28 59) false) true)))
(assert (and x1 x2))
(assert (or (< y6 21) (and x0 x1)))
(assert (= y17 74))
(assert (or true true))
(assert (or (or (and (= (< y10 76) (= y5 y16)) (= (+ 66 29) (+ 40 32))) (= false x2)) false))
(check-sat)
